<number of tasks>
30

<cycle time>
36

<task times>
1 8
2 7
3 19
4 10
5 2
6 6
7 14
8 10
9 1
10 4
11 14
12 15
13 5
14 12
15 9
16 10
17 2
18 10
19 18
20 16
21 21
22 14
23 16
24 7
25 17
26 9
27 25
28 7
29 14
30 2

<precedence relations>
1,4
1,5
2,11
2,12
3,16
3,17
4,7
5,6
6,7
7,8
8,9
9,26
10,24
12,13
13,14
14,15
14,20
15,22
16,20
17,18
18,19
20,21
20,24
21,22
22,23
23,27
24,25
25,26
26,27
27,28
27,29
29,30

<setup times forward>
1,4:4
1,10:2
1,11:1
1,12:4
1,13:4
1,14:2
1,15:2
1,16:2
1,17:1
1,18:2
1,19:1
1,20:1
1,21:2
1,22:3
1,23:3
2,4:4
2,6:4
2,7:1
2,9:3
2,10:2
2,11:1
2,12:4
2,16:2
2,17:1
2,18:2
2,19:1
3,4:4
3,6:4
3,7:1
3,9:3
3,10:2
3,11:1
3,12:4
3,13:4
3,14:2
3,15:2
3,16:2
3,17:1
4,2:4
4,3:4
4,5:4
4,7:5
4,10:6
4,11:5
4,14:2
4,15:6
4,16:2
4,17:5
4,18:2
4,19:3
4,20:3
4,21:6
4,22:7
4,23:7
4,24:4
4,25:4
5,4:4
5,6:4
5,10:2
5,11:1
5,12:4
5,13:4
5,14:2
5,15:2
5,16:2
5,17:1
5,18:2
5,19:1
5,20:1
5,21:2
5,22:3
5,23:3
6,2:4
6,3:4
6,7:5
6,10:6
6,11:5
6,14:2
6,15:6
6,16:2
6,17:5
6,18:2
6,19:3
6,20:3
6,21:6
6,22:7
6,23:7
6,24:4
6,25:4
7,2:1
7,3:1
7,8:1
7,10:1
7,12:5
7,13:5
7,14:3
7,15:1
7,16:3
7,18:3
7,19:2
7,20:2
7,21:1
7,22:2
7,23:2
7,24:1
7,25:1
8,9:3
8,10:2
8,11:1
8,12:4
8,13:4
8,14:2
8,15:2
8,16:2
8,17:1
8,18:2
8,19:1
8,20:1
8,21:2
8,22:3
8,23:3
9,2:3
9,3:3
9,10:5
9,11:4
9,12:1
9,13:1
9,14:1
9,15:5
9,16:1
9,17:4
9,18:1
9,19:2
9,20:2
9,21:5
9,22:6
9,23:6
9,24:3
9,25:3
10,1:2
10,2:2
10,3:2
10,4:6
10,5:2
10,6:6
10,7:1
10,8:2
10,9:5
10,11:1
10,12:6
10,13:6
10,14:4
10,16:4
10,17:1
10,18:4
10,19:3
10,20:3
10,22:1
10,23:1
10,24:2
11,1:1
11,3:1
11,4:5
11,5:1
11,6:5
11,8:1
11,9:4
11,10:1
11,12:5
11,13:5
11,14:3
11,15:1
11,16:3
11,18:3
11,19:2
11,20:2
11,21:1
11,22:2
11,23:2
11,24:1
11,25:1
11,26:4
11,27:4
12,1:4
12,3:4
12,5:4
12,7:5
12,8:4
12,9:1
12,10:6
12,11:5
12,16:2
12,17:5
12,18:2
12,19:3
13,1:4
13,3:4
13,5:4
13,7:5
13,8:4
13,9:1
13,10:6
13,11:5
13,14:2
13,16:2
13,17:5
13,18:2
13,19:3
14,1:2
14,3:2
14,4:2
14,5:2
14,6:2
14,7:3
14,8:2
14,9:1
14,10:4
14,11:3
14,15:4
14,17:3
14,19:1
14,20:1
15,1:2
15,3:2
15,4:6
15,5:2
15,6:6
15,7:1
15,8:2
15,9:5
15,11:1
15,16:4
15,17:1
15,18:4
15,19:3
15,20:3
15,22:1
15,24:2
15,25:2
15,26:5
16,1:2
16,2:2
16,4:2
16,5:2
16,6:2
16,7:3
16,8:2
16,9:1
16,10:4
16,11:3
16,12:2
16,13:2
16,15:4
16,17:3
16,19:1
16,20:1
17,1:1
17,2:1
17,4:5
17,5:1
17,6:5
17,8:1
17,9:4
17,10:1
17,12:5
17,13:5
17,14:3
17,15:1
17,16:3
17,18:3
17,20:2
17,21:1
17,22:2
17,23:2
17,24:1
17,25:1
17,26:4
17,27:4
18,1:2
18,2:2
18,4:2
18,5:2
18,6:2
18,7:3
18,8:2
18,9:1
18,10:4
18,11:3
18,12:2
18,13:2
18,15:4
18,19:1
18,20:1
18,21:4
18,22:5
18,23:5
18,24:2
18,25:2
18,26:1
18,27:1
18,28:3
18,29:3
18,30:3
19,1:1
19,2:1
19,4:3
19,5:1
19,6:3
19,7:2
19,8:1
19,9:2
19,10:3
19,11:2
19,12:3
19,13:3
19,14:1
19,15:3
19,16:1
19,21:3
19,22:4
19,23:4
19,24:1
19,25:1
19,26:2
19,27:2
19,28:2
19,29:2
19,30:2
20,1:1
20,4:3
20,5:1
20,6:3
20,7:2
20,8:1
20,9:2
20,10:3
20,11:2
20,15:3
20,17:2
20,18:1
20,21:3
20,24:1
21,1:2
21,4:6
21,5:2
21,6:6
21,7:1
21,8:2
21,9:5
21,11:1
21,17:1
21,18:4
21,19:3
21,22:1
21,24:2
21,25:2
21,26:5
22,1:3
22,4:7
22,5:3
22,6:7
22,7:2
22,8:3
22,9:6
22,10:1
22,11:2
22,17:2
22,18:5
22,19:4
22,24:3
22,25:3
22,26:6
23,1:3
23,4:7
23,5:3
23,6:7
23,7:2
23,8:3
23,9:6
23,10:1
23,11:2
23,17:2
23,18:5
23,19:4
23,24:3
23,25:3
23,26:6
23,27:6
24,4:4
24,6:4
24,7:1
24,9:3
24,11:1
24,15:2
24,17:1
24,18:2
24,19:1
24,21:2
24,22:3
24,23:3
25,4:4
25,6:4
25,7:1
25,9:3
25,11:1
25,15:2
25,17:1
25,18:2
25,19:1
25,21:2
25,22:3
25,23:3
25,26:3
26,11:4
26,15:5
26,17:4
26,18:1
26,19:2
26,21:5
26,22:6
26,23:6
27,11:4
27,17:4
27,18:1
27,19:2
27,28:4
27,29:4
28,18:3
28,19:2
29,18:3
29,19:2
30,18:3
30,19:2

<setup times backward>
1,10:2
1,11:1
1,15:2
1,17:1
1,21:2
1,22:3
1,23:3
2,7:1
2,10:2
2,17:1
3,7:1
3,10:2
3,11:1
3,15:2
4,1:4
4,2:4
4,3:4
4,5:4
4,10:6
4,11:5
4,14:2
4,15:6
4,16:2
4,17:5
4,18:2
4,19:3
4,20:3
4,21:6
4,22:7
4,23:7
4,24:4
4,25:4
5,10:2
5,11:1
5,15:2
5,17:1
5,21:2
5,22:3
5,23:3
6,1:4
6,2:4
6,3:4
6,5:4
6,10:6
6,11:5
6,14:2
6,15:6
6,16:2
6,17:5
6,18:2
6,19:3
6,20:3
6,21:6
6,22:7
6,23:7
6,24:4
6,25:4
7,10:1
7,15:1
7,21:1
7,22:2
7,23:2
8,7:1
8,10:2
8,11:1
8,15:2
8,17:1
8,21:2
8,22:3
8,23:3
9,1:3
9,2:3
9,3:3
9,5:3
9,7:4
9,8:3
9,10:5
9,11:4
9,14:1
9,15:5
9,16:1
9,17:4
9,18:1
9,19:2
9,20:2
9,21:5
9,22:6
9,23:6
9,24:3
9,25:3
10,22:1
10,23:1
11,10:1
11,15:1
11,21:1
11,22:2
11,23:2
12,1:4
12,2:4
12,3:4
12,5:4
12,7:5
12,8:4
12,9:1
12,10:6
12,11:5
12,16:2
12,17:5
12,18:2
12,19:3
13,1:4
13,2:4
13,3:4
13,5:4
13,7:5
13,8:4
13,9:1
13,10:6
13,11:5
13,16:2
13,17:5
13,18:2
13,19:3
14,1:2
14,2:2
14,3:2
14,5:2
14,7:3
14,8:2
14,10:4
14,11:3
14,17:3
14,19:1
16,1:2
16,2:2
16,3:2
16,5:2
16,7:3
16,8:2
16,10:4
16,11:3
16,15:4
16,17:3
16,19:1
17,10:1
17,15:1
17,21:1
17,22:2
17,23:2
18,1:2
18,2:2
18,3:2
18,5:2
18,7:3
18,8:2
18,10:4
18,11:3
18,15:4
18,17:3
18,20:1
18,21:4
18,22:5
18,23:5
18,24:2
18,25:2
18,28:3
18,29:3
18,30:3
19,1:1
19,2:1
19,3:1
19,5:1
19,7:2
19,8:1
19,10:3
19,11:2
19,15:3
19,17:2
19,21:3
19,22:4
19,23:4
19,24:1
19,25:1
19,28:2
19,29:2
19,30:2
20,1:1
20,2:1
20,3:1
20,5:1
20,7:2
20,8:1
20,10:3
20,11:2
20,15:3
20,17:2
24,7:1
24,10:2
24,11:1
24,15:2
24,17:1
24,21:2
24,22:3
24,23:3
25,7:1
25,10:2
25,11:1
25,15:2
25,17:1
25,21:2
25,22:3
25,23:3
26,1:3
26,2:3
26,3:3
26,5:3
26,7:4
26,8:3
26,10:5
26,11:4
26,14:1
26,15:5
26,16:1
26,17:4
26,18:1
26,19:2
26,20:2
26,21:5
26,22:6
26,23:6
26,24:3
26,25:3
27,1:3
27,2:3
27,3:3
27,5:3
27,7:4
27,8:3
27,10:5
27,11:4
27,14:1
27,15:5
27,16:1
27,17:4
27,18:1
27,19:2
27,20:2
27,21:5
27,22:6
27,23:6
27,24:3
27,25:3
28,10:1
28,15:1
28,21:1
28,22:2
28,23:2
29,10:1
29,15:1
29,21:1
29,22:2
29,23:2
30,10:1
30,15:1
30,21:1
30,22:2
30,23:2

<end>

<optimal SALBP-1 value>
10


<rand seed>
467321153

